100 89206

 884 113
766 901
221 378
262 454
410 191
331 891
344 440
989 187
771 831
820 367
74 89
637 187
700 819
254 946
959 132
833 872
820 635
747 560
986 800
762 376
332 691
398 692
345 99
584 842
747 34
836 932
668 582
455 171
906 366
115 784
313 59
228 181
834 19
858 226
245 473
818 95
526 881
528 297
950 593
427 175
42 222
465 615
622 54
278 695
836 863
19 403
66 318
167 867
585 349
403 443
912 833
822 580
409 540
112 786
274 282
407 360
373 915
597 823
651 631
39 892
105 953
324 646
793 641
959 8
992 993
414 563
429 491
635 341
730 472
889 793
61 687
612 695
307 704
354 249
393 235
204 83
258 93
486 885
517 394
446 824
709 268
180 417
342 632
133 583
443 529
836 253
253 957
265 122
93 892
662 10
411 799
138 316
208 838
637 273
746 306
573 805
307 210
266 958
646 730
318 753
